c File: data_files/evolved_graphs/g0263.col
c
c Auto generated graph
c
p edge 100 1144
e 1 5
e 1 10
e 1 11
e 1 13
e 1 16
e 1 17
e 1 18
e 1 19
e 1 27
e 1 30
e 1 34
e 1 35
e 1 37
e 1 38
e 1 40
e 1 51
e 1 55
e 1 56
e 1 59
e 1 60
e 1 62
e 1 63
e 1 66
e 1 68
e 1 69
e 1 70
e 1 71
e 1 72
e 2 7
e 2 10
e 2 12
e 2 13
e 2 14
e 2 20
e 2 22
e 2 28
e 2 29
e 2 31
e 2 33
e 2 36
e 2 46
e 2 49
e 2 51
e 2 54
e 2 55
e 2 56
e 2 57
e 2 58
e 2 59
e 2 60
e 2 61
e 2 63
e 2 65
e 2 66
e 2 67
e 2 68
e 2 69
e 2 70
e 2 71
e 2 72
e 2 86
e 2 92
e 3 7
e 3 12
e 3 14
e 3 17
e 3 19
e 3 22
e 3 29
e 3 30
e 3 31
e 3 34
e 3 36
e 3 40
e 3 44
e 3 46
e 3 47
e 3 49
e 3 50
e 3 52
e 3 53
e 3 54
e 3 57
e 3 58
e 3 59
e 3 60
e 3 63
e 3 65
e 3 66
e 3 68
e 3 69
e 3 70
e 3 71
e 3 72
e 3 73
e 4 46
e 4 49
e 4 52
e 4 53
e 4 54
e 4 55
e 4 56
e 4 57
e 4 61
e 4 63
e 4 66
e 4 69
e 4 70
e 4 72
e 4 91
e 4 95
e 5 56
e 5 57
e 5 59
e 5 60
e 5 63
e 5 64
e 5 65
e 5 66
e 5 67
e 5 68
e 5 69
e 5 70
e 5 71
e 5 72
e 5 78
e 5 79
e 5 81
e 6 49
e 6 51
e 6 52
e 6 53
e 6 55
e 6 59
e 6 60
e 6 61
e 6 62
e 6 63
e 6 65
e 6 66
e 6 68
e 6 69
e 6 70
e 6 71
e 6 72
e 6 79
e 6 92
e 6 99
e 7 49
e 7 51
e 7 55
e 7 56
e 7 57
e 7 60
e 7 61
e 7 62
e 7 64
e 7 68
e 7 69
e 7 70
e 7 71
e 7 72
e 8 13
e 8 15
e 8 16
e 8 51
e 8 54
e 8 55
e 8 59
e 8 60
e 8 61
e 8 63
e 8 64
e 8 66
e 8 67
e 8 68
e 8 69
e 8 70
e 8 71
e 8 72
e 8 80
e 9 50
e 9 54
e 9 56
e 9 63
e 9 64
e 9 66
e 9 68
e 9 69
e 9 70
e 9 71
e 9 72
e 9 74
e 9 79
e 9 83
e 9 97
e 10 48
e 10 49
e 10 50
e 10 54
e 10 55
e 10 56
e 10 58
e 10 59
e 10 61
e 10 62
e 10 63
e 10 66
e 10 67
e 10 68
e 10 69
e 10 70
e 10 71
e 10 72
e 10 75
e 10 78
e 10 87
e 10 88
e 10 90
e 10 91
e 10 92
e 10 93
e 10 94
e 10 95
e 10 96
e 11 20
e 11 50
e 11 51
e 11 52
e 11 53
e 11 55
e 11 56
e 11 58
e 11 59
e 11 60
e 11 62
e 11 65
e 11 66
e 11 67
e 11 68
e 11 69
e 11 70
e 11 71
e 11 72
e 11 78
e 11 87
e 11 88
e 11 89
e 11 90
e 11 91
e 11 92
e 11 93
e 11 94
e 11 96
e 12 17
e 12 42
e 12 49
e 12 50
e 12 51
e 12 52
e 12 53
e 12 57
e 12 60
e 12 61
e 12 62
e 12 63
e 12 64
e 12 65
e 12 67
e 12 85
e 12 100
e 13 32
e 13 52
e 13 53
e 13 58
e 13 59
e 13 61
e 13 63
e 13 64
e 13 66
e 13 80
e 14 45
e 14 51
e 14 52
e 14 54
e 14 56
e 14 58
e 14 59
e 14 60
e 14 62
e 14 63
e 14 64
e 14 65
e 14 66
e 14 82
e 14 97
e 14 98
e 14 99
e 15 49
e 15 50
e 15 58
e 15 59
e 15 60
e 15 61
e 15 62
e 15 63
e 15 64
e 15 65
e 15 67
e 15 97
e 15 98
e 15 99
e 16 49
e 16 50
e 16 51
e 16 52
e 16 53
e 16 54
e 16 55
e 16 56
e 16 57
e 16 58
e 16 59
e 16 60
e 16 61
e 16 62
e 16 63
e 16 64
e 16 65
e 16 66
e 16 67
e 16 76
e 16 97
e 16 98
e 17 49
e 17 50
e 17 51
e 17 52
e 17 53
e 17 54
e 17 55
e 17 56
e 17 57
e 17 58
e 17 59
e 17 60
e 17 61
e 17 62
e 17 63
e 17 64
e 17 66
e 17 67
e 17 70
e 17 74
e 17 77
e 17 97
e 17 98
e 17 99
e 18 38
e 18 40
e 18 49
e 18 50
e 18 51
e 18 52
e 18 53
e 18 54
e 18 55
e 18 56
e 18 57
e 18 58
e 18 59
e 18 60
e 18 61
e 18 62
e 18 63
e 18 64
e 18 65
e 18 66
e 18 67
e 18 68
e 18 76
e 18 77
e 18 97
e 18 98
e 19 49
e 19 50
e 19 51
e 19 52
e 19 53
e 19 54
e 19 55
e 19 56
e 19 57
e 19 58
e 19 59
e 19 60
e 19 61
e 19 62
e 19 63
e 19 65
e 19 66
e 19 67
e 19 69
e 19 94
e 19 98
e 20 49
e 20 50
e 20 51
e 20 52
e 20 53
e 20 54
e 20 55
e 20 56
e 20 57
e 20 58
e 20 59
e 20 60
e 20 61
e 20 62
e 20 63
e 20 64
e 20 65
e 20 66
e 20 67
e 20 72
e 20 77
e 20 79
e 20 80
e 20 81
e 20 82
e 20 83
e 20 84
e 20 85
e 21 49
e 21 51
e 21 52
e 21 53
e 21 54
e 21 55
e 21 56
e 21 57
e 21 58
e 21 59
e 21 60
e 21 61
e 21 62
e 21 63
e 21 64
e 21 65
e 21 66
e 21 67
e 21 74
e 21 75
e 21 79
e 21 80
e 21 81
e 21 82
e 21 83
e 21 84
e 21 85
e 21 98
e 22 49
e 22 51
e 22 52
e 22 53
e 22 54
e 22 55
e 22 56
e 22 57
e 22 58
e 22 59
e 22 60
e 22 61
e 22 62
e 22 63
e 22 64
e 22 65
e 22 66
e 22 67
e 22 68
e 22 79
e 22 80
e 22 81
e 22 82
e 22 83
e 22 84
e 22 85
e 22 90
e 23 27
e 23 49
e 23 50
e 23 51
e 23 52
e 23 53
e 23 54
e 23 55
e 23 56
e 23 57
e 23 58
e 23 59
e 23 60
e 23 61
e 23 62
e 23 63
e 23 64
e 23 65
e 23 66
e 23 67
e 23 73
e 23 74
e 23 75
e 23 76
e 23 79
e 23 80
e 23 81
e 23 82
e 23 83
e 23 84
e 23 85
e 24 49
e 24 50
e 24 51
e 24 52
e 24 53
e 24 54
e 24 55
e 24 56
e 24 57
e 24 58
e 24 59
e 24 60
e 24 61
e 24 62
e 24 63
e 24 64
e 24 65
e 24 66
e 24 67
e 24 74
e 24 83
e 24 86
e 25 49
e 25 50
e 25 51
e 25 52
e 25 53
e 25 54
e 25 55
e 25 56
e 25 57
e 25 58
e 25 59
e 25 60
e 25 61
e 25 62
e 25 63
e 25 64
e 25 65
e 25 66
e 25 67
e 25 83
e 25 85
e 26 49
e 26 50
e 26 51
e 26 52
e 26 53
e 26 54
e 26 55
e 26 56
e 26 57
e 26 58
e 26 59
e 26 60
e 26 61
e 26 62
e 26 63
e 26 64
e 26 65
e 26 66
e 26 67
e 26 78
e 26 85
e 27 49
e 27 50
e 27 51
e 27 52
e 27 53
e 27 54
e 27 55
e 27 56
e 27 57
e 27 58
e 27 59
e 27 60
e 27 61
e 27 62
e 27 63
e 27 64
e 27 65
e 27 66
e 27 67
e 27 79
e 28 49
e 28 50
e 28 51
e 28 52
e 28 53
e 28 54
e 28 55
e 28 56
e 28 57
e 28 58
e 28 59
e 28 60
e 28 61
e 28 62
e 28 63
e 28 64
e 28 65
e 28 66
e 28 67
e 29 49
e 29 50
e 29 51
e 29 52
e 29 53
e 29 54
e 29 55
e 29 56
e 29 57
e 29 58
e 29 59
e 29 60
e 29 61
e 29 62
e 29 63
e 29 64
e 29 65
e 29 66
e 29 67
e 30 33
e 30 36
e 30 49
e 30 50
e 30 51
e 30 52
e 30 53
e 30 54
e 30 55
e 30 56
e 30 57
e 30 58
e 30 59
e 30 60
e 30 61
e 30 62
e 30 63
e 30 64
e 30 65
e 30 66
e 30 67
e 30 79
e 30 95
e 31 49
e 31 50
e 31 51
e 31 52
e 31 53
e 31 54
e 31 55
e 31 56
e 31 57
e 31 58
e 31 59
e 31 60
e 31 61
e 31 62
e 31 63
e 31 64
e 31 65
e 31 66
e 31 67
e 31 85
e 31 94
e 31 95
e 32 49
e 32 50
e 32 51
e 32 52
e 32 53
e 32 54
e 32 55
e 32 56
e 32 57
e 32 58
e 32 59
e 32 60
e 32 61
e 32 62
e 32 63
e 32 64
e 32 65
e 32 66
e 32 67
e 32 87
e 32 93
e 33 49
e 33 50
e 33 51
e 33 52
e 33 53
e 33 54
e 33 55
e 33 56
e 33 57
e 33 58
e 33 59
e 33 60
e 33 61
e 33 62
e 33 63
e 33 64
e 33 65
e 33 66
e 33 67
e 33 88
e 34 49
e 34 50
e 34 51
e 34 52
e 34 53
e 34 54
e 34 55
e 34 56
e 34 57
e 34 58
e 34 59
e 34 60
e 34 61
e 34 62
e 34 63
e 34 64
e 34 65
e 34 66
e 34 67
e 35 50
e 35 51
e 35 52
e 35 53
e 35 54
e 35 55
e 35 56
e 35 57
e 35 58
e 35 59
e 35 60
e 35 61
e 35 62
e 35 63
e 35 64
e 35 65
e 35 66
e 35 67
e 36 44
e 36 49
e 36 50
e 36 51
e 36 52
e 36 53
e 36 54
e 36 55
e 36 56
e 36 57
e 36 58
e 36 59
e 36 60
e 36 61
e 36 62
e 36 63
e 36 64
e 36 65
e 36 66
e 36 67
e 37 49
e 37 50
e 37 51
e 37 52
e 37 53
e 37 54
e 37 55
e 37 56
e 37 57
e 37 58
e 37 59
e 37 60
e 37 61
e 37 62
e 37 63
e 37 64
e 37 65
e 37 66
e 37 67
e 37 95
e 38 50
e 38 51
e 38 52
e 38 53
e 38 54
e 38 55
e 38 56
e 38 57
e 38 58
e 38 59
e 38 60
e 38 61
e 38 62
e 38 63
e 38 64
e 38 65
e 38 66
e 38 67
e 38 91
e 38 94
e 39 50
e 39 51
e 39 52
e 39 53
e 39 54
e 39 55
e 39 56
e 39 57
e 39 58
e 39 59
e 39 60
e 39 61
e 39 62
e 39 63
e 39 64
e 39 65
e 39 66
e 39 67
e 40 50
e 40 51
e 40 52
e 40 53
e 40 54
e 40 55
e 40 56
e 40 57
e 40 58
e 40 59
e 40 60
e 40 61
e 40 62
e 40 63
e 40 64
e 40 65
e 40 66
e 40 67
e 41 50
e 41 51
e 41 52
e 41 53
e 41 54
e 41 55
e 41 56
e 41 57
e 41 58
e 41 59
e 41 60
e 41 61
e 41 62
e 41 63
e 41 64
e 41 65
e 41 66
e 41 67
e 42 49
e 42 50
e 42 51
e 42 52
e 42 53
e 42 54
e 42 55
e 42 56
e 42 57
e 42 58
e 42 59
e 42 60
e 42 61
e 42 62
e 42 63
e 42 64
e 42 65
e 42 66
e 42 67
e 44 73
e 44 76
e 47 76
e 48 73
e 48 74
e 49 73
e 49 74
e 50 73
e 50 74
e 51 73
e 51 74
e 52 56
e 52 64
e 52 66
e 52 73
e 52 74
e 53 74
e 54 95
e 54 99
e 54 100
e 55 63
e 55 100
e 56 88
e 56 100
e 57 87
e 57 100
e 58 100
e 59 62
e 59 83
e 59 84
e 59 85
e 59 100
e 60 100
e 61 100
e 62 81
e 62 100
e 63 100
e 64 72
e 64 100
e 65 89
e 65 90
e 65 91
e 66 88
e 66 89
e 66 90
e 66 91
e 66 100
e 67 78
e 67 79
e 67 82
e 67 89
e 67 90
e 67 91
e 67 92
e 67 93
e 67 94
e 67 95
e 67 96
e 67 97
e 67 98
e 67 100
e 68 89
e 68 90
e 68 91
e 68 92
e 68 93
e 68 94
e 68 95
e 68 96
e 68 98
e 68 99
e 68 100
e 69 89
e 69 90
e 69 91
e 69 92
e 69 93
e 69 94
e 69 95
e 69 96
e 69 97
e 69 98
e 69 99
e 69 100
e 70 74
e 70 90
e 70 91
e 70 92
e 70 93
e 70 94
e 70 95
e 70 96
e 70 97
e 70 98
e 70 99
e 70 100
e 71 89
e 71 90
e 71 91
e 71 92
e 71 93
e 71 94
e 71 95
e 71 96
e 71 97
e 71 98
e 71 99
e 71 100
e 72 89
e 72 90
e 72 91
e 72 92
e 72 93
e 72 94
e 72 95
e 72 96
e 72 97
e 72 98
e 72 99
e 72 100
e 73 89
e 73 90
e 73 91
e 73 92
e 73 93
e 73 94
e 73 95
e 73 96
e 73 97
e 73 98
e 73 99
e 73 100
e 74 89
e 74 90
e 74 91
e 74 92
e 74 93
e 74 94
e 74 95
e 74 96
e 74 97
e 74 98
e 74 99
e 74 100
e 75 89
e 75 90
e 75 91
e 75 92
e 75 93
e 75 94
e 75 95
e 75 96
e 75 98
e 75 99
e 75 100
e 76 89
e 76 90
e 76 91
e 76 92
e 76 93
e 76 94
e 76 95
e 76 96
e 76 97
e 76 98
e 76 99
e 76 100
e 77 89
e 77 90
e 77 91
e 77 92
e 77 93
e 77 94
e 77 95
e 77 96
e 77 97
e 77 98
e 77 99
e 77 100
e 78 89
e 78 90
e 78 91
e 78 92
e 78 93
e 78 94
e 78 95
e 78 96
e 78 97
e 78 98
e 78 99
e 78 100
e 79 83
e 79 84
e 79 86
e 79 87
e 79 88
e 79 89
e 79 90
e 79 91
e 79 92
e 79 93
e 79 94
e 79 95
e 79 96
e 79 97
e 79 98
e 79 99
e 79 100
e 80 83
e 80 84
e 80 85
e 80 86
e 80 87
e 80 88
e 80 89
e 80 90
e 80 91
e 80 92
e 80 93
e 80 94
e 80 95
e 80 96
e 80 97
e 80 98
e 80 99
e 80 100
e 81 83
e 81 84
e 81 85
e 81 86
e 81 87
e 81 88
e 81 89
e 81 90
e 81 91
e 81 92
e 81 93
e 81 94
e 81 95
e 81 96
e 81 97
e 81 98
e 81 99
e 81 100
e 85 97
e 90 97
e 92 98
